7818
9364
8317
9562
4332
10147
1937
9085
742
7729
8396
9529
3053
7751
9286
9432
7486
1502
5315
9880
6204
3392
10153
1161
2628
4240
4266
7863
10195
1680
7079
8296
3598
3417
6871
6746
1128
6668
8593
8670
4479
5338
3384
3577
3454
949
3127
9846
3678
3939
8081
